p cnf 7230 17
7023 7025 7027 7029 -7065 0
-7023 -7066 0
-7025 -7066 0
-6991 -7033 -7069 0
-6989 -7031 -7067 0
6991 -7070 0
6989 -7068 0
-7027 -7066 0
7069 7070 0
7067 7068 0
7065 7066 0
7033 -7070 0
7031 -7068 0
-7029 -7066 0
7035 -7072 0
7063 7064 0
-7063 -7064 0
